24

-0.5 -0.5 0.5 
0.5 -0.5 0.5 
-0.5 0.5 0.5 
0.5 0.5 0.5 
-0.5 0.5 -0.5 
0.5 0.5 -0.5 
-0.5 -0.5 -0.5 
0.5 -0.5 -0.5 
-0.5 -0.5 0.5 
-0.5 -0.5 0.5 
0.5 -0.5 0.5 
0.5 -0.5 0.5 
-0.5 0.5 0.5 
-0.5 0.5 0.5 
0.5 0.5 0.5 
0.5 0.5 0.5 
-0.5 0.5 -0.5 
-0.5 0.5 -0.5 
0.5 0.5 -0.5 
0.5 0.5 -0.5 
-0.5 -0.5 -0.5 
-0.5 -0.5 -0.5 
0.5 -0.5 -0.5 
0.5 -0.5 -0.5 

12

0 1 3 
0 3 2 
2 3 5 
2 5 4 
4 5 7 
4 7 6 
6 7 1 
6 1 0 
1 7 5 
1 5 3 
6 0 2 
6 2 4 
